NAME : ClusterId_1035 
COMMENT : (Gillet and Johnson) 
TYPE : CVRP 
DIMENSION : 24 
EDGE_WEIGHT_TYPE : EUC_2D 
CAPACITY : 500 
NODE_COORD_SECTION 
1035 863 1432 
670 820 539 
102 522 1206 
998 573 1318 
456 959 605 
494 1170 384 
589 1171 465 
707 636 1488 
206 877 1086 
558 812 1216 
939 772 1306 
464 690 1526 
913 729 1523 
341 1022 1007 
470 1003 1115 
806 1278 672 
736 1027 1141 
788 1254 1029 
121 910 1761 
792 1165 1257 
104 1413 1006 
749 1222 1368 
796 1118 1926 
12 1251 1790 
DEMAND_SECTION 
1035 1120
670 34
102 35
998 46
456 53
494 33
589 52
707 27
206 45
558 56
939 50
464 51
913 30
341 56
470 49
806 36
736 47
788 31
121 50
792 33
104 53
749 32
796 41
12 40
DEPOT_SECTION 
1035
 -1
EOF